
Gurobi 10.0.1 (win64, Python) logging started Wed Nov  1 15:02:34 2023

Set parameter Username
Set parameter LogFile to value "gurobi.log"
Academic license - for non-commercial use only - expires 2024-02-12
